/*********************************************
 * OPL 12.9.0.0 Data
 * Author: Administrator
 * Creation Date: 2019年10月5日 at 下午4:09:43
 *********************************************/
nbJobs =5;
nbStages =2;
nbMach =[0,3,2];
nbWork =[0,2,2];
allMach = [0, 3, 5];
B=10000;
OpDurations = [
[19,19,20,64,70],
[23,24,32,31,34],
[37,44,48,47,51],
[32,38,43,8,9],
[33,36,38,15,21]
];
OpDue = [432,294,460,231,268];

 